Ru Cter
1
7.02987458196  4.0587  0
0  8.1174  0
0  0  23.5632000032
45  1
Direct
  0.111111362044   0.111111362044   0.407668858402   !Ru
  0.111111362044   0.111111362044   0.592331141598   !Ru
  0.11111152676   0.444444561933   0.40766898347   !Ru
  0.11111152676   0.444444561933   0.59233101653   !Ru
  0.111112437297   0.77777830346   0.407668743396   !Ru
  0.111112437297   0.77777830346   0.592331256604   !Ru
  0.444444561933   0.11111152676   0.40766898347   !Ru
  0.444444561933   0.11111152676   0.59233101653   !Ru
  0.444444704421   0.444444704421   0.407669083977   !Ru
  0.444444704421   0.444444704421   0.592330916023   !Ru
  0.444445639087   0.77777846154   0.40766880178   !Ru
  0.444445639087   0.77777846154   0.59233119822   !Ru
  0.77777830346   0.111112437297   0.407668743396   !Ru
  0.77777830346   0.111112437297   0.592331256604   !Ru
  0.77777846154   0.444445639087   0.40766880178   !Ru
  0.77777846154   0.444445639087   0.59233119822   !Ru
  0.77777939682   0.77777939682   0.407668600268   !Ru
  0.77777939682   0.77777939682   0.592331399732   !Ru
  0.222220229918   0.222220229918   0.319206090682   !Ru
  0.222219041776   0.222219041776   0.5   !Ru
  0.222220229918   0.222220229918   0.680793909318   !Ru
  0.222220942324   0.555556751331   0.319206304876   !Ru
  0.222219746757   0.555556549502   0.5   !Ru
  0.222220942324   0.555556751331   0.680793695124   !Ru
  0.222220999529   0.888888213884   0.319206163162   !Ru
  0.222219733926   0.888888492334   0.5   !Ru
  0.222220999529   0.888888213884   0.680793836838   !Ru
  0.555556751331   0.222220942324   0.319206304876   !Ru
  0.555556549502   0.222219746757   0.5   !Ru
  0.555556751331   0.222220942324   0.680793695124   !Ru
  0.555557484721   0.555557484721   0.319206611874   !Ru
  0.555557382624   0.555557382624   0.5   !Ru
  0.555557484721   0.555557484721   0.680793388126   !Ru
  0.555557461317   0.888889020796   0.31920649411   !Ru
  0.555557221961   0.888889388176   0.5   !Ru
  0.555557461317   0.888889020796   0.68079350589   !Ru
  0.888888213884   0.222220999529   0.319206163162   !Ru
  0.888888492334   0.222219733926   0.5   !Ru
  0.888888213884   0.222220999529   0.680793836838   !Ru
  0.888889020796   0.555557461317   0.31920649411   !Ru
  0.888889388176   0.555557221961   0.5   !Ru
  0.888889020796   0.555557461317   0.68079350589   !Ru
  0.888889085143   0.888889085143   0.319206259653   !Ru
  0.888889278299   0.888889278299   0.5   !Ru
  0.888889085143   0.888889085143   0.680793740347   !Ru
  0.388889396289   0.555557160832   0.731720410634   !C

